Please solve the following SAT Problem encoded in DIMACS format, only return a single solution assignment without explanations, if there is any: 
p cnf 3 10
1 -2 3 0
3 -2 1 0
1 3 -2 0
-2 3 1 0
3 -1 2 0
-2 3 1 0
3 -2 -1 0
3 1 -2 0
3 -2 1 0
-3 -2 1 0

